p tw 30 41
e 0 7
e 0 17
e 0 27
e 1 18
e 1 21
e 2 3
e 2 5
e 2 8
e 2 12
e 2 13
e 2 28
e 3 4
e 3 14
e 3 19
e 3 28
e 4 5
e 5 11
e 6 8
e 7 22
e 7 29
e 8 11
e 8 16
e 8 23
e 9 10
e 9 12
e 10 11
e 11 24
e 13 17
e 13 23
e 14 22
e 15 23
e 15 28
e 16 20
e 17 22
e 17 25
e 17 26
e 18 26
e 20 27
e 20 29
e 21 29
e 22 24
